Route #1: 4 45 27 52 8 46 34 67
Route #2: 26 58 72 31 25 55 18 50 9 39
Route #3: 12 10 38 65 66 11 53
Route #4: 7 35 14 59 19 54 13 57 15 5 29
Route #5: 48 47 36 37 20 70 60 71 69 61 21
Route #6: 2 22 64 42 43 41 56 23 49 24
Route #7: 6 51 16 3 44 32 40 17
Route #8: 33 63 1 73 62 28 74 30 68 75
Cost 773